Solver command line: ['C:\\Program Files\\IBM\\ILOG\\CPLEX_Studio2211\\cplex\\bin\\x64_win64\\cplex.exe']


Welcome to IBM(R) ILOG(R) CPLEX(R) Interactive Optimizer 22.1.1.0
  with Simplex, Mixed Integer & Barrier Optimizers
5725-A06 5725-A29 5724-Y48 5724-Y49 5724-Y54 5724-Y55 5655-Y21
Copyright IBM Corp. 1988, 2022.  All Rights Reserved.

Type 'help' for a list of available commands.
Type 'help' followed by a command name for more
information on commands.

CPLEX> Logfile 'cplex.log' closed.
Logfile 'C:\Users\wangy\Documents\GitHub\re_optimization\result_site_specific\tmpzq4uujgy.cplex.log' open.
CPLEX> Problem 'C:\Users\wangy\Documents\GitHub\re_optimization\result_site_specific\tmpm9bnph_p.pyomo.lp' read.
Read time = 0.36 sec. (7.98 ticks)
CPLEX> Problem name         : C:\Users\wangy\Documents\GitHub\re_optimization\result_site_specific\tmpm9bnph_p.pyomo.lp
Objective sense      : Minimize
Variables            :   56997  [Nneg: 30685,  Free: 4406,  Binary: 6,
                                 Other: 21900]
Objective nonzeros   :      14
Linear constraints   :   78893  [Less: 42355,  Greater: 5,  Equal: 36533]
  Nonzeros           :  198783
  RHS nonzeros       :    3728

Variables            : Min LB: 0.000000         Max UB: 1.000000       
Objective nonzeros   : Min   : 1.000000         Max   : 1.000000       
Linear constraints   :
  Nonzeros           : Min   : 0.001740014      Max   : 100000.0       
  RHS nonzeros       : Min   : 0.04000000       Max   : 100000.0       
CPLEX> Version identifier: 22.1.1.0 | 2022-11-27 | 9160aff4d
Tried aggregator 3 times.
MIP Presolve eliminated 45256 rows and 24813 columns.
Aggregator did 11867 substitutions.
Reduced MIP has 21770 rows, 20317 columns, and 66287 nonzeros.
Reduced MIP has 2 binaries, 0 generals, 0 SOSs, and 0 indicators.
Presolve time = 0.28 sec. (210.73 ticks)
Found incumbent of value 249990.511510 after 0.41 sec. (310.69 ticks)
Probing time = 0.00 sec. (1.13 ticks)
Tried aggregator 1 time.
Detecting symmetries...
Reduced MIP has 21770 rows, 20317 columns, and 66287 nonzeros.
Reduced MIP has 2 binaries, 0 generals, 0 SOSs, and 0 indicators.
Presolve time = 0.06 sec. (42.00 ticks)
Probing time = 0.00 sec. (1.07 ticks)
MIP emphasis: balance optimality and feasibility.
MIP search method: dynamic search.
Parallel mode: deterministic, using up to 16 threads.
Root relaxation solution time = 1.86 sec. (1018.03 ticks)

        Nodes                                         Cuts/
   Node  Left     Objective  IInf  Best Integer    Best Bound    ItCnt     Gap

*     0+    0                       249990.5115   -16324.8392           106.53%
*     0+    0                         6618.6498   -16324.8392           346.65%
      0     0     5981.8122     1     6618.6498     5981.8122       93    9.62%
*     0+    0                         6618.6361     5981.8122             9.62%
      0     0        cutoff           6618.6361                   1374    0.00%
Elapsed time = 2.81 sec. (2113.69 ticks, tree = 0.01 MB, solutions = 3)

Root node processing (before b&c):
  Real time             =    2.81 sec. (2116.46 ticks)
Parallel b&c, 16 threads:
  Real time             =    0.00 sec. (0.00 ticks)
  Sync time (average)   =    0.00 sec.
  Wait time (average)   =    0.00 sec.
                          ------------
Total (root+branch&cut) =    2.81 sec. (2116.46 ticks)

Solution pool: 3 solutions saved.

MIP - Integer optimal solution:  Objective =  6.6186361332e+03
Solution time =    2.83 sec.  Iterations = 1374  Nodes = 0
Deterministic time = 2116.62 ticks  (748.45 ticks/sec)

CPLEX> Incumbent solution written to file 'C:\Users\wangy\Documents\GitHub\re_optimization\result_site_specific\tmp9ioin5gv.cplex.sol'.
CPLEX> 
